0,0,13,5
1,1,13,1
2,0,1,3
3,3,16,1
4,3,4,9
5,3,17,5
6,15,7,8
7,13,7,7
8,14,17,23
9,13,14,2
10,6,9,4
11,9,2,30
12,6,15,3
13,8,10,6
14,0,8,22
15,13,6,1
16,0,6,14
17,10,5,6
18,5,12,9
19,16,11,4
20,4,12,18
21,15,3,8
22,7,16,1
23,2,5,5
24,11,12,3
25,5,11,7
26,2,3,12
27,6,14,4
28,4,16,2
29,1,4,10
30,16,12,15
31,7,17,2
32,17,6,5
33,15,1,13